

























































































12 42 0 
23 8 33 
35 16 68 
18 4 22 
32 58 24 17 
38 45 5 
55 37 1 
21 11 56 13 
67 7 20 
49 73 61 
53 76 10 
70 25 46 2 
59 72 48 
39 44 50 
9 75 3 
63 36 15 
31 29 19 
69 62 54 71 
65 27 40 
14 6 28 
30 60 64 34 
51 52 47 
41 66 26 

74 57 43 
